c File: flat50_3_0.col
c
c SOURCE: Joseph Culberson (joe@cs.ualberta.ca)
c DESCRIPTION: Quasi-random coloring problem
c              generated with flatness = 0
c                             probability = 0.139
c                             known coloring = 3
c                             random seed = 1435
c              Creation Date:  Tue Jun  9 12:09:17 1998
c Maximum degree = 8 Minimum degree = 1
c p edge 50 115
c cnf created by edge2cnf
p cnf 150 545
-1 -2 0
-1 -3 0
-2 -3 0
1 2 3 0
-4 -5 0
-4 -6 0
-5 -6 0
4 5 6 0
-7 -8 0
-7 -9 0
-8 -9 0
7 8 9 0
-10 -11 0
-10 -12 0
-11 -12 0
10 11 12 0
-13 -14 0
-13 -15 0
-14 -15 0
13 14 15 0
-16 -17 0
-16 -18 0
-17 -18 0
16 17 18 0
-19 -20 0
-19 -21 0
-20 -21 0
19 20 21 0
-22 -23 0
-22 -24 0
-23 -24 0
22 23 24 0
-25 -26 0
-25 -27 0
-26 -27 0
25 26 27 0
-28 -29 0
-28 -30 0
-29 -30 0
28 29 30 0
-31 -32 0
-31 -33 0
-32 -33 0
31 32 33 0
-34 -35 0
-34 -36 0
-35 -36 0
34 35 36 0
-37 -38 0
-37 -39 0
-38 -39 0
37 38 39 0
-40 -41 0
-40 -42 0
-41 -42 0
40 41 42 0
-43 -44 0
-43 -45 0
-44 -45 0
43 44 45 0
-46 -47 0
-46 -48 0
-47 -48 0
46 47 48 0
-49 -50 0
-49 -51 0
-50 -51 0
49 50 51 0
-52 -53 0
-52 -54 0
-53 -54 0
52 53 54 0
-55 -56 0
-55 -57 0
-56 -57 0
55 56 57 0
-58 -59 0
-58 -60 0
-59 -60 0
58 59 60 0
-61 -62 0
-61 -63 0
-62 -63 0
61 62 63 0
-64 -65 0
-64 -66 0
-65 -66 0
64 65 66 0
-67 -68 0
-67 -69 0
-68 -69 0
67 68 69 0
-70 -71 0
-70 -72 0
-71 -72 0
70 71 72 0
-73 -74 0
-73 -75 0
-74 -75 0
73 74 75 0
-76 -77 0
-76 -78 0
-77 -78 0
76 77 78 0
-79 -80 0
-79 -81 0
-80 -81 0
79 80 81 0
-82 -83 0
-82 -84 0
-83 -84 0
82 83 84 0
-85 -86 0
-85 -87 0
-86 -87 0
85 86 87 0
-88 -89 0
-88 -90 0
-89 -90 0
88 89 90 0
-91 -92 0
-91 -93 0
-92 -93 0
91 92 93 0
-94 -95 0
-94 -96 0
-95 -96 0
94 95 96 0
-97 -98 0
-97 -99 0
-98 -99 0
97 98 99 0
-100 -101 0
-100 -102 0
-101 -102 0
100 101 102 0
-103 -104 0
-103 -105 0
-104 -105 0
103 104 105 0
-106 -107 0
-106 -108 0
-107 -108 0
106 107 108 0
-109 -110 0
-109 -111 0
-110 -111 0
109 110 111 0
-112 -113 0
-112 -114 0
-113 -114 0
112 113 114 0
-115 -116 0
-115 -117 0
-116 -117 0
115 116 117 0
-118 -119 0
-118 -120 0
-119 -120 0
118 119 120 0
-121 -122 0
-121 -123 0
-122 -123 0
121 122 123 0
-124 -125 0
-124 -126 0
-125 -126 0
124 125 126 0
-127 -128 0
-127 -129 0
-128 -129 0
127 128 129 0
-130 -131 0
-130 -132 0
-131 -132 0
130 131 132 0
-133 -134 0
-133 -135 0
-134 -135 0
133 134 135 0
-136 -137 0
-136 -138 0
-137 -138 0
136 137 138 0
-139 -140 0
-139 -141 0
-140 -141 0
139 140 141 0
-142 -143 0
-142 -144 0
-143 -144 0
142 143 144 0
-145 -146 0
-145 -147 0
-146 -147 0
145 146 147 0
-148 -149 0
-148 -150 0
-149 -150 0
148 149 150 0
-79 -1 0
-80 -2 0
-81 -3 0
-97 -1 0
-98 -2 0
-99 -3 0
-121 -1 0
-122 -2 0
-123 -3 0
-136 -1 0
-137 -2 0
-138 -3 0
-82 -4 0
-83 -5 0
-84 -6 0
-91 -4 0
-92 -5 0
-93 -6 0
-109 -4 0
-110 -5 0
-111 -6 0
-85 -7 0
-86 -8 0
-87 -9 0
-88 -7 0
-89 -8 0
-90 -9 0
-94 -7 0
-95 -8 0
-96 -9 0
-112 -7 0
-113 -8 0
-114 -9 0
-124 -7 0
-125 -8 0
-126 -9 0
-127 -7 0
-128 -8 0
-129 -9 0
-94 -10 0
-95 -11 0
-96 -12 0
-100 -10 0
-101 -11 0
-102 -12 0
-118 -10 0
-119 -11 0
-120 -12 0
-145 -10 0
-146 -11 0
-147 -12 0
-64 -13 0
-65 -14 0
-66 -15 0
-82 -13 0
-83 -14 0
-84 -15 0
-118 -13 0
-119 -14 0
-120 -15 0
-133 -13 0
-134 -14 0
-135 -15 0
-148 -13 0
-149 -14 0
-150 -15 0
-52 -16 0
-53 -17 0
-54 -18 0
-55 -16 0
-56 -17 0
-57 -18 0
-115 -16 0
-116 -17 0
-117 -18 0
-142 -16 0
-143 -17 0
-144 -18 0
-52 -19 0
-53 -20 0
-54 -21 0
-85 -19 0
-86 -20 0
-87 -21 0
-124 -19 0
-125 -20 0
-126 -21 0
-82 -22 0
-83 -23 0
-84 -24 0
-124 -22 0
-125 -23 0
-126 -24 0
-139 -22 0
-140 -23 0
-141 -24 0
-148 -22 0
-149 -23 0
-150 -24 0
-52 -25 0
-53 -26 0
-54 -27 0
-64 -25 0
-65 -26 0
-66 -27 0
-82 -25 0
-83 -26 0
-84 -27 0
-64 -28 0
-65 -29 0
-66 -30 0
-79 -28 0
-80 -29 0
-81 -30 0
-100 -28 0
-101 -29 0
-102 -30 0
-106 -28 0
-107 -29 0
-108 -30 0
-121 -28 0
-122 -29 0
-123 -30 0
-127 -28 0
-128 -29 0
-129 -30 0
-55 -31 0
-56 -32 0
-57 -33 0
-67 -31 0
-68 -32 0
-69 -33 0
-70 -31 0
-71 -32 0
-72 -33 0
-76 -31 0
-77 -32 0
-78 -33 0
-103 -31 0
-104 -32 0
-105 -33 0
-106 -31 0
-107 -32 0
-108 -33 0
-112 -31 0
-113 -32 0
-114 -33 0
-121 -31 0
-122 -32 0
-123 -33 0
-64 -34 0
-65 -35 0
-66 -36 0
-70 -34 0
-71 -35 0
-72 -36 0
-76 -34 0
-77 -35 0
-78 -36 0
-103 -34 0
-104 -35 0
-105 -36 0
-118 -34 0
-119 -35 0
-120 -36 0
-136 -34 0
-137 -35 0
-138 -36 0
-145 -34 0
-146 -35 0
-147 -36 0
-130 -37 0
-131 -38 0
-132 -39 0
-136 -37 0
-137 -38 0
-138 -39 0
-139 -40 0
-140 -41 0
-141 -42 0
-55 -43 0
-56 -44 0
-57 -45 0
-70 -43 0
-71 -44 0
-72 -45 0
-73 -43 0
-74 -44 0
-75 -45 0
-88 -43 0
-89 -44 0
-90 -45 0
-115 -43 0
-116 -44 0
-117 -45 0
-142 -43 0
-143 -44 0
-144 -45 0
-67 -46 0
-68 -47 0
-69 -48 0
-85 -46 0
-86 -47 0
-87 -48 0
-100 -46 0
-101 -47 0
-102 -48 0
-109 -46 0
-110 -47 0
-111 -48 0
-124 -46 0
-125 -47 0
-126 -48 0
-127 -46 0
-128 -47 0
-129 -48 0
-58 -49 0
-59 -50 0
-60 -51 0
-70 -49 0
-71 -50 0
-72 -51 0
-85 -49 0
-86 -50 0
-87 -51 0
-88 -49 0
-89 -50 0
-90 -51 0
-133 -49 0
-134 -50 0
-135 -51 0
-115 -52 0
-116 -53 0
-117 -54 0
-118 -52 0
-119 -53 0
-120 -54 0
-124 -52 0
-125 -53 0
-126 -54 0
-136 -52 0
-137 -53 0
-138 -54 0
-109 -55 0
-110 -56 0
-111 -57 0
-112 -55 0
-113 -56 0
-114 -57 0
-121 -58 0
-122 -59 0
-123 -60 0
-115 -61 0
-116 -62 0
-117 -63 0
-148 -61 0
-149 -62 0
-150 -63 0
-112 -64 0
-113 -65 0
-114 -66 0
-145 -64 0
-146 -65 0
-147 -66 0
-133 -67 0
-134 -68 0
-135 -69 0
-106 -70 0
-107 -71 0
-108 -72 0
-109 -70 0
-110 -71 0
-111 -72 0
-112 -73 0
-113 -74 0
-114 -75 0
-142 -73 0
-143 -74 0
-144 -75 0
-145 -73 0
-146 -74 0
-147 -75 0
-148 -73 0
-149 -74 0
-150 -75 0
-103 -76 0
-104 -77 0
-105 -78 0
-118 -76 0
-119 -77 0
-120 -78 0
-121 -76 0
-122 -77 0
-123 -78 0
-142 -76 0
-143 -77 0
-144 -78 0
-109 -79 0
-110 -80 0
-111 -81 0
-127 -79 0
-128 -80 0
-129 -81 0
-121 -85 0
-122 -86 0
-123 -87 0
-127 -85 0
-128 -86 0
-129 -87 0
-136 -85 0
-137 -86 0
-138 -87 0
-145 -88 0
-146 -89 0
-147 -90 0
-109 -91 0
-110 -92 0
-111 -93 0
-121 -91 0
-122 -92 0
-123 -93 0
-124 -91 0
-125 -92 0
-126 -93 0
-106 -94 0
-107 -95 0
-108 -96 0
-130 -94 0
-131 -95 0
-132 -96 0
-133 -94 0
-134 -95 0
-135 -96 0
-136 -94 0
-137 -95 0
-138 -96 0
-106 -100 0
-107 -101 0
-108 -102 0
-133 -100 0
-134 -101 0
-135 -102 0
-139 -100 0
-140 -101 0
-141 -102 0
